c File: flat75_3_0.col
c
c SOURCE: Joseph Culberson (joe@cs.ualberta.ca)
c DESCRIPTION: Quasi-random coloring problem
c              generated with flatness = 0
c                             probability = 0.096
c                             known coloring = 3
c                             random seed = 1053
c              Creation Date:  Wed Feb 24 10:42:02 1999
c Maximum degree = 8 Minimum degree = 1
c COLOR VERIFICATION: Using the permuted order
c under simple greedy yields the specified
c coloring number
c Color = 3 specified partitions = 3
c p edge 75 180
c cnf created by edge2cnf
p cnf 225 840
-1 -2 0
-1 -3 0
-2 -3 0
1 2 3 0
-4 -5 0
-4 -6 0
-5 -6 0
4 5 6 0
-7 -8 0
-7 -9 0
-8 -9 0
7 8 9 0
-10 -11 0
-10 -12 0
-11 -12 0
10 11 12 0
-13 -14 0
-13 -15 0
-14 -15 0
13 14 15 0
-16 -17 0
-16 -18 0
-17 -18 0
16 17 18 0
-19 -20 0
-19 -21 0
-20 -21 0
19 20 21 0
-22 -23 0
-22 -24 0
-23 -24 0
22 23 24 0
-25 -26 0
-25 -27 0
-26 -27 0
25 26 27 0
-28 -29 0
-28 -30 0
-29 -30 0
28 29 30 0
-31 -32 0
-31 -33 0
-32 -33 0
31 32 33 0
-34 -35 0
-34 -36 0
-35 -36 0
34 35 36 0
-37 -38 0
-37 -39 0
-38 -39 0
37 38 39 0
-40 -41 0
-40 -42 0
-41 -42 0
40 41 42 0
-43 -44 0
-43 -45 0
-44 -45 0
43 44 45 0
-46 -47 0
-46 -48 0
-47 -48 0
46 47 48 0
-49 -50 0
-49 -51 0
-50 -51 0
49 50 51 0
-52 -53 0
-52 -54 0
-53 -54 0
52 53 54 0
-55 -56 0
-55 -57 0
-56 -57 0
55 56 57 0
-58 -59 0
-58 -60 0
-59 -60 0
58 59 60 0
-61 -62 0
-61 -63 0
-62 -63 0
61 62 63 0
-64 -65 0
-64 -66 0
-65 -66 0
64 65 66 0
-67 -68 0
-67 -69 0
-68 -69 0
67 68 69 0
-70 -71 0
-70 -72 0
-71 -72 0
70 71 72 0
-73 -74 0
-73 -75 0
-74 -75 0
73 74 75 0
-76 -77 0
-76 -78 0
-77 -78 0
76 77 78 0
-79 -80 0
-79 -81 0
-80 -81 0
79 80 81 0
-82 -83 0
-82 -84 0
-83 -84 0
82 83 84 0
-85 -86 0
-85 -87 0
-86 -87 0
85 86 87 0
-88 -89 0
-88 -90 0
-89 -90 0
88 89 90 0
-91 -92 0
-91 -93 0
-92 -93 0
91 92 93 0
-94 -95 0
-94 -96 0
-95 -96 0
94 95 96 0
-97 -98 0
-97 -99 0
-98 -99 0
97 98 99 0
-100 -101 0
-100 -102 0
-101 -102 0
100 101 102 0
-103 -104 0
-103 -105 0
-104 -105 0
103 104 105 0
-106 -107 0
-106 -108 0
-107 -108 0
106 107 108 0
-109 -110 0
-109 -111 0
-110 -111 0
109 110 111 0
-112 -113 0
-112 -114 0
-113 -114 0
112 113 114 0
-115 -116 0
-115 -117 0
-116 -117 0
115 116 117 0
-118 -119 0
-118 -120 0
-119 -120 0
118 119 120 0
-121 -122 0
-121 -123 0
-122 -123 0
121 122 123 0
-124 -125 0
-124 -126 0
-125 -126 0
124 125 126 0
-127 -128 0
-127 -129 0
-128 -129 0
127 128 129 0
-130 -131 0
-130 -132 0
-131 -132 0
130 131 132 0
-133 -134 0
-133 -135 0
-134 -135 0
133 134 135 0
-136 -137 0
-136 -138 0
-137 -138 0
136 137 138 0
-139 -140 0
-139 -141 0
-140 -141 0
139 140 141 0
-142 -143 0
-142 -144 0
-143 -144 0
142 143 144 0
-145 -146 0
-145 -147 0
-146 -147 0
145 146 147 0
-148 -149 0
-148 -150 0
-149 -150 0
148 149 150 0
-151 -152 0
-151 -153 0
-152 -153 0
151 152 153 0
-154 -155 0
-154 -156 0
-155 -156 0
154 155 156 0
-157 -158 0
-157 -159 0
-158 -159 0
157 158 159 0
-160 -161 0
-160 -162 0
-161 -162 0
160 161 162 0
-163 -164 0
-163 -165 0
-164 -165 0
163 164 165 0
-166 -167 0
-166 -168 0
-167 -168 0
166 167 168 0
-169 -170 0
-169 -171 0
-170 -171 0
169 170 171 0
-172 -173 0
-172 -174 0
-173 -174 0
172 173 174 0
-175 -176 0
-175 -177 0
-176 -177 0
175 176 177 0
-178 -179 0
-178 -180 0
-179 -180 0
178 179 180 0
-181 -182 0
-181 -183 0
-182 -183 0
181 182 183 0
-184 -185 0
-184 -186 0
-185 -186 0
184 185 186 0
-187 -188 0
-187 -189 0
-188 -189 0
187 188 189 0
-190 -191 0
-190 -192 0
-191 -192 0
190 191 192 0
-193 -194 0
-193 -195 0
-194 -195 0
193 194 195 0
-196 -197 0
-196 -198 0
-197 -198 0
196 197 198 0
-199 -200 0
-199 -201 0
-200 -201 0
199 200 201 0
-202 -203 0
-202 -204 0
-203 -204 0
202 203 204 0
-205 -206 0
-205 -207 0
-206 -207 0
205 206 207 0
-208 -209 0
-208 -210 0
-209 -210 0
208 209 210 0
-211 -212 0
-211 -213 0
-212 -213 0
211 212 213 0
-214 -215 0
-214 -216 0
-215 -216 0
214 215 216 0
-217 -218 0
-217 -219 0
-218 -219 0
217 218 219 0
-220 -221 0
-220 -222 0
-221 -222 0
220 221 222 0
-223 -224 0
-223 -225 0
-224 -225 0
223 224 225 0
-34 -1 0
-35 -2 0
-36 -3 0
-49 -1 0
-50 -2 0
-51 -3 0
-58 -1 0
-59 -2 0
-60 -3 0
-94 -1 0
-95 -2 0
-96 -3 0
-109 -1 0
-110 -2 0
-111 -3 0
-169 -1 0
-170 -2 0
-171 -3 0
-187 -1 0
-188 -2 0
-189 -3 0
-16 -4 0
-17 -5 0
-18 -6 0
-100 -4 0
-101 -5 0
-102 -6 0
-214 -4 0
-215 -5 0
-216 -6 0
-64 -7 0
-65 -8 0
-66 -9 0
-97 -7 0
-98 -8 0
-99 -9 0
-142 -7 0
-143 -8 0
-144 -9 0
-145 -7 0
-146 -8 0
-147 -9 0
-211 -7 0
-212 -8 0
-213 -9 0
-223 -7 0
-224 -8 0
-225 -9 0
-73 -10 0
-74 -11 0
-75 -12 0
-199 -10 0
-200 -11 0
-201 -12 0
-190 -13 0
-191 -14 0
-192 -15 0
-202 -13 0
-203 -14 0
-204 -15 0
-58 -16 0
-59 -17 0
-60 -18 0
-73 -16 0
-74 -17 0
-75 -18 0
-136 -16 0
-137 -17 0
-138 -18 0
-190 -16 0
-191 -17 0
-192 -18 0
-34 -19 0
-35 -20 0
-36 -21 0
-79 -19 0
-80 -20 0
-81 -21 0
-91 -19 0
-92 -20 0
-93 -21 0
-178 -19 0
-179 -20 0
-180 -21 0
-31 -22 0
-32 -23 0
-33 -24 0
-133 -22 0
-134 -23 0
-135 -24 0
-187 -22 0
-188 -23 0
-189 -24 0
-142 -25 0
-143 -26 0
-144 -27 0
-184 -25 0
-185 -26 0
-186 -27 0
-103 -28 0
-104 -29 0
-105 -30 0
-190 -28 0
-191 -29 0
-192 -30 0
-193 -28 0
-194 -29 0
-195 -30 0
-199 -28 0
-200 -29 0
-201 -30 0
-223 -28 0
-224 -29 0
-225 -30 0
-70 -31 0
-71 -32 0
-72 -33 0
-82 -31 0
-83 -32 0
-84 -33 0
-145 -31 0
-146 -32 0
-147 -33 0
-157 -31 0
-158 -32 0
-159 -33 0
-181 -31 0
-182 -32 0
-183 -33 0
-202 -31 0
-203 -32 0
-204 -33 0
-217 -31 0
-218 -32 0
-219 -33 0
-88 -34 0
-89 -35 0
-90 -36 0
-124 -34 0
-125 -35 0
-126 -36 0
-154 -34 0
-155 -35 0
-156 -36 0
-172 -34 0
-173 -35 0
-174 -36 0
-217 -34 0
-218 -35 0
-219 -36 0
-223 -34 0
-224 -35 0
-225 -36 0
-46 -37 0
-47 -38 0
-48 -39 0
-73 -37 0
-74 -38 0
-75 -39 0
-82 -37 0
-83 -38 0
-84 -39 0
-103 -37 0
-104 -38 0
-105 -39 0
-151 -37 0
-152 -38 0
-153 -39 0
-178 -37 0
-179 -38 0
-180 -39 0
-46 -40 0
-47 -41 0
-48 -42 0
-58 -40 0
-59 -41 0
-60 -42 0
-100 -40 0
-101 -41 0
-102 -42 0
-106 -40 0
-107 -41 0
-108 -42 0
-115 -40 0
-116 -41 0
-117 -42 0
-145 -40 0
-146 -41 0
-147 -42 0
-46 -43 0
-47 -44 0
-48 -45 0
-61 -43 0
-62 -44 0
-63 -45 0
-166 -43 0
-167 -44 0
-168 -45 0
-184 -43 0
-185 -44 0
-186 -45 0
-187 -43 0
-188 -44 0
-189 -45 0
-205 -46 0
-206 -47 0
-207 -48 0
-67 -49 0
-68 -50 0
-69 -51 0
-160 -49 0
-161 -50 0
-162 -51 0
-178 -49 0
-179 -50 0
-180 -51 0
-190 -49 0
-191 -50 0
-192 -51 0
-208 -49 0
-209 -50 0
-210 -51 0
-88 -52 0
-89 -53 0
-90 -54 0
-115 -52 0
-116 -53 0
-117 -54 0
-94 -55 0
-95 -56 0
-96 -57 0
-217 -55 0
-218 -56 0
-219 -57 0
-127 -58 0
-128 -59 0
-129 -60 0
-181 -58 0
-182 -59 0
-183 -60 0
-184 -58 0
-185 -59 0
-186 -60 0
-109 -61 0
-110 -62 0
-111 -63 0
-121 -61 0
-122 -62 0
-123 -63 0
-187 -61 0
-188 -62 0
-189 -63 0
-202 -61 0
-203 -62 0
-204 -63 0
-217 -61 0
-218 -62 0
-219 -63 0
-88 -64 0
-89 -65 0
-90 -66 0
-172 -64 0
-173 -65 0
-174 -66 0
-178 -64 0
-179 -65 0
-180 -66 0
-106 -67 0
-107 -68 0
-108 -69 0
-127 -67 0
-128 -68 0
-129 -69 0
-139 -67 0
-140 -68 0
-141 -69 0
-151 -67 0
-152 -68 0
-153 -69 0
-187 -67 0
-188 -68 0
-189 -69 0
-193 -67 0
-194 -68 0
-195 -69 0
-220 -67 0
-221 -68 0
-222 -69 0
-130 -70 0
-131 -71 0
-132 -72 0
-172 -70 0
-173 -71 0
-174 -72 0
-148 -73 0
-149 -74 0
-150 -75 0
-166 -73 0
-167 -74 0
-168 -75 0
-220 -73 0
-221 -74 0
-222 -75 0
-97 -76 0
-98 -77 0
-99 -78 0
-142 -76 0
-143 -77 0
-144 -78 0
-160 -76 0
-161 -77 0
-162 -78 0
-169 -76 0
-170 -77 0
-171 -78 0
-184 -76 0
-185 -77 0
-186 -78 0
-208 -76 0
-209 -77 0
-210 -78 0
-211 -76 0
-212 -77 0
-213 -78 0
-214 -76 0
-215 -77 0
-216 -78 0
-121 -79 0
-122 -80 0
-123 -81 0
-196 -79 0
-197 -80 0
-198 -81 0
-157 -82 0
-158 -83 0
-159 -84 0
-202 -82 0
-203 -83 0
-204 -84 0
-205 -82 0
-206 -83 0
-207 -84 0
-121 -85 0
-122 -86 0
-123 -87 0
-127 -85 0
-128 -86 0
-129 -87 0
-139 -85 0
-140 -86 0
-141 -87 0
-181 -85 0
-182 -86 0
-183 -87 0
-109 -88 0
-110 -89 0
-111 -90 0
-220 -88 0
-221 -89 0
-222 -90 0
-106 -91 0
-107 -92 0
-108 -93 0
-154 -91 0
-155 -92 0
-156 -93 0
-154 -94 0
-155 -95 0
-156 -96 0
-193 -94 0
-194 -95 0
-195 -96 0
-214 -94 0
-215 -95 0
-216 -96 0
-109 -97 0
-110 -98 0
-111 -99 0
-193 -97 0
-194 -98 0
-195 -99 0
-112 -100 0
-113 -101 0
-114 -102 0
-115 -100 0
-116 -101 0
-117 -102 0
-157 -100 0
-158 -101 0
-159 -102 0
-127 -103 0
-128 -104 0
-129 -105 0
-130 -103 0
-131 -104 0
-132 -105 0
-142 -103 0
-143 -104 0
-144 -105 0
-175 -103 0
-176 -104 0
-177 -105 0
-184 -103 0
-185 -104 0
-186 -105 0
-142 -106 0
-143 -107 0
-144 -108 0
-196 -109 0
-197 -110 0
-198 -111 0
-127 -112 0
-128 -113 0
-129 -114 0
-133 -112 0
-134 -113 0
-135 -114 0
-139 -112 0
-140 -113 0
-141 -114 0
-145 -112 0
-146 -113 0
-147 -114 0
-190 -112 0
-191 -113 0
-192 -114 0
-172 -118 0
-173 -119 0
-174 -120 0
-124 -121 0
-125 -122 0
-126 -123 0
-151 -121 0
-152 -122 0
-153 -123 0
-154 -121 0
-155 -122 0
-156 -123 0
-172 -121 0
-173 -122 0
-174 -123 0
-166 -124 0
-167 -125 0
-168 -126 0
-181 -124 0
-182 -125 0
-183 -126 0
-220 -124 0
-221 -125 0
-222 -126 0
-184 -127 0
-185 -128 0
-186 -129 0
-190 -127 0
-191 -128 0
-192 -129 0
-157 -130 0
-158 -131 0
-159 -132 0
-175 -130 0
-176 -131 0
-177 -132 0
-181 -130 0
-182 -131 0
-183 -132 0
-193 -130 0
-194 -131 0
-195 -132 0
-157 -133 0
-158 -134 0
-159 -135 0
-172 -133 0
-173 -134 0
-174 -135 0
-208 -133 0
-209 -134 0
-210 -135 0
-145 -136 0
-146 -137 0
-147 -138 0
-151 -136 0
-152 -137 0
-153 -138 0
-163 -136 0
-164 -137 0
-165 -138 0
-151 -139 0
-152 -140 0
-153 -141 0
-211 -139 0
-212 -140 0
-213 -141 0
-184 -145 0
-185 -146 0
-186 -147 0
-166 -151 0
-167 -152 0
-168 -153 0
-169 -157 0
-170 -158 0
-171 -159 0
-187 -163 0
-188 -164 0
-189 -165 0
-175 -166 0
-176 -167 0
-177 -168 0
-196 -166 0
-197 -167 0
-198 -168 0
-199 -169 0
-200 -170 0
-201 -171 0
-193 -172 0
-194 -173 0
-195 -174 0
-199 -175 0
-200 -176 0
-201 -177 0
-202 -178 0
-203 -179 0
-204 -180 0
-208 -181 0
-209 -182 0
-210 -183 0
-199 -187 0
-200 -188 0
-201 -189 0
-199 -190 0
-200 -191 0
-201 -192 0
-214 -205 0
-215 -206 0
-216 -207 0
-211 -208 0
-212 -209 0
-213 -210 0
-214 -208 0
-215 -209 0
-216 -210 0
